************************************************************************
file with basedata            : mm31_.bas
initial value random generator: 1570211528
************************************************************************
projects                      :  1
jobs (incl. supersource/sink ):  12
horizon                       :  72
RESOURCES
  - renewable                 :  2   R
  - nonrenewable              :  2   N
  - doubly constrained        :  0   D
************************************************************************
PROJECT INFORMATION:
pronr.  #jobs rel.date duedate tardcost  MPM-Time
    1     10      0       15        5       15
************************************************************************
PRECEDENCE RELATIONS:
jobnr.    #modes  #successors   successors
   1        1          3           2   3   4
   2        3          2           6  11
   3        3          2           5   7
   4        3          2           9  10
   5        3          2           8  10
   6        3          1           8
   7        3          2           9  10
   8        3          1           9
   9        3          1          12
  10        3          1          12
  11        3          1          12
  12        1          0        
************************************************************************
REQUESTS/DURATIONS:
jobnr. mode duration  R 1  R 2  N 1  N 2
------------------------------------------------------------------------
  1      1     0       0    0    0    0
  2      1     4       3    0    5    5
         2     4       1    0   10    5
         3     4       0    6    6    5
  3      1     3       0    2    8    8
         2     5       6    0    7    8
         3     9       2    0    5    7
  4      1     8       8    0    9   10
         2     9       7    0    8    9
         3    10       6    0    7    9
  5      1     1       0    5    5   10
         2     9       0    2    5    7
         3    10       7    0    4    6
  6      1     1       5    0    5    7
         2     1       0    7    4    6
         3     1       0    7    5    5
  7      1     8      10    0   10    9
         2     8       0    6    8    9
         3    10       0    5    8    9
  8      1     3       0    5    7   10
         2     6       0    4    5   10
         3     6       9    0    4   10
  9      1     4       7    0    2   10
         2     8       3    0    2    7
         3    10       0    4    1    6
 10      1     1       6    0    6    6
         2     3       5    0    6    5
         3     4       5    0    5    4
 11      1     4       7    0    7    8
         2     8       0    4    7    6
         3     8       7    0    7    7
 12      1     0       0    0    0    0
************************************************************************
RESOURCEAVAILABILITIES:
  R 1  R 2  N 1  N 2
   32   17   63   78
************************************************************************
MAXIMAL LAGS:
from  to  type  delay
    1   12   ES      0
    1    2   ES      0
    2   12   ES      0
    1    3   ES      0
    3   12   ES      0
    1    4   ES      0
    4   12   ES      0
    1    5   ES      0
    5   12   ES      0
    1    6   ES      0
    6   12   ES      0
    1    7   ES      0
    7   12   ES      0
    1    8   ES      0
    8   12   ES      0
    1    9   ES      0
    9   12   ES      0
    1   10   ES      0
   10   12   ES      0
    1   11   ES      0
   11   12   ES      0
    1   12   ES      0
    2    6   SS      4
    2    6   SE     -3
    2    6   ES     -1
    2    6   EE     12
    2   11   SS      3
    2   11   SE      1
    2   11   ES     -2
    2   11   EE     -7
    3    5   SS     -9
    3    5   SE     -6
    3    5   ES     -8
    3    5   EE      4
    3    7   SS     -5
    3    7   SE     -6
    3    7   ES      5
    3    7   EE      7
    4    9   SS     10
    4    9   SE      4
    4    9   ES      5
    4    9   EE     10
    4   10   SS      5
    4   10   SE     10
    4   10   ES     12
    4   10   EE     -9
    5    8   SS      1
    5    8   SE      2
    5    8   ES    -10
    5    8   EE     -9
    5   10   SS     -8
    5   10   SE    -12
    5   10   ES      3
    5   10   EE     -1
    6    8   SS     -3
    6    8   SE     10
    6    8   ES     -1
    6    8   EE     -8
    7    9   SS      2
    7    9   SE      7
    7    9   ES      4
    7    9   EE     12
    7   10   SS     -2
    7   10   SE     -7
    7   10   ES     10
    7   10   EE     -3
    8    9   SS    -12
    8    9   SE     11
    8    9   ES     -9
    8    9   EE     -5
************************************************************************
